Problem:    06
Rows:       7
Columns:    7
Non-zeros:  47
Status:     OPTIMAL
Objective:  z = 26.23620095 (MINimum)

   No.   Row name   St   Activity     Lower bound   Upper bound    Marginal
------ ------------ -- ------------- ------------- ------------- -------------
     1 LowerS[Prot] NL            25            25                     1.43861 
     2 LowerS[Carb] B             25            15               
     3 LowerS[Gr]   B             20            10               
     4 UpperS[Prot] B             25                          35 
     5 UpperS[Carb] NU            25                          25     -0.220572 
     6 UpperS[Gr]   NU            20                          20     -0.210733 
     7 z            B        26.2362                             

   No. Column name  St   Activity     Lower bound   Upper bound    Marginal
------ ------------ -- ------------- ------------- ------------- -------------
     1 x[Pasta]     NL             0             0                  0.00380769 
     2 x[Latte]     NL             0             0                 0.000864799 
     3 x[Form]      NL             0             0                  0.00664739 
     4 x[Pesce]     B        930.007             0               
     5 x[Verd]      B        1650.08             0               
     6 x[Pane]      B        360.809             0               
     7 x[Pol]       NL             0             0                  0.00858558 

Karush-Kuhn-Tucker optimality conditions:

KKT.PE: max.abs.err = 0.00e+000 on row 0
        max.rel.err = 0.00e+000 on row 0
        High quality

KKT.PB: max.abs.err = 0.00e+000 on row 0
        max.rel.err = 0.00e+000 on row 0
        High quality

KKT.DE: max.abs.err = 3.47e-018 on column 1
        max.rel.err = 3.36e-018 on column 1
        High quality

KKT.DB: max.abs.err = 0.00e+000 on row 0
        max.rel.err = 0.00e+000 on row 0
        High quality

End of output
